Version identifier: 22.1.0.0 | 2022-03-09 | 1a383f8ce
CPXPARAM_Threads                                 1
CPXPARAM_MIP_Strategy_VariableSelect             3
CPXPARAM_TimeLimit                               599.99998219199995
1 of 1 MIP starts provided solutions.
MIP start 'm1' defined initial solution with objective 1.0000.
Tried aggregator 2 times.
MIP Presolve eliminated 48 rows and 1 columns.
MIP Presolve added 36 rows and 9 columns.
MIP Presolve modified 37 coefficients.
Aggregator did 9 substitutions.
Reduced MIP has 4500 rows, 10500 columns, and 246873 nonzeros.
Reduced MIP has 10500 binaries, 0 generals, 0 SOSs, and 0 indicators.
Presolve time = 0.33 sec. (466.15 ticks)
Probing time = 0.04 sec. (32.97 ticks)
Tried aggregator 1 time.
Detecting symmetries...
MIP Presolve modified 12 coefficients.
Reduced MIP has 4500 rows, 10500 columns, and 247051 nonzeros.
Reduced MIP has 10500 binaries, 0 generals, 0 SOSs, and 0 indicators.
Presolve time = 0.26 sec. (374.17 ticks)
Probing time = 0.04 sec. (32.98 ticks)
Clique table members: 1995.
MIP emphasis: balance optimality and feasibility.
MIP search method: dynamic search.
Parallel mode: none, using 1 thread.
Root relaxation solution time = 6.57 sec. (6689.92 ticks)

        Nodes                                         Cuts/
   Node  Left     Objective  IInf  Best Integer    Best Bound    ItCnt     Gap

*     0+    0                            1.0000   125250.0000              --- 
      0     0      500.0000  2097        1.0000      500.0000    10361     --- 
*     0+    0                          263.0000      500.0000            90.11%
      0     0      500.0000   557      263.0000      Cuts: 13    11651   90.11%
      0     0      500.0000   887      263.0000     Cuts: 164    15450   90.11%
      0     0      500.0000   368      263.0000      Cuts: 14    16748   90.11%
*     0+    0                          473.0000      500.0000             5.71%
*     0+    0                          477.0000      500.0000             4.82%
      0     0        cutoff            477.0000      500.0000    16748    4.82%
      0     0      500.0000   688      477.0000     Cuts: 108    20219    4.82%
Detecting symmetries...
      0     2      500.0000   263      477.0000      500.0000    20219    4.82%
Elapsed time = 119.95 sec. (112323.37 ticks, tree = 0.01 MB, solutions = 4)
      1     3      500.0000   955      477.0000      500.0000    45071    4.82%
      2     4      500.0000   517      477.0000      500.0000    49915    4.82%
      3     5      500.0000  1008      477.0000      500.0000    61823    4.82%
      4     6      500.0000   586      477.0000      500.0000    62253    4.82%
      5     7      500.0000   585      477.0000      500.0000    62444    4.82%
      6     8      500.0000   724      477.0000      500.0000    64410    4.82%
      7     9      500.0000   586      477.0000      500.0000    65591    4.82%
      8    10      500.0000   617      477.0000      500.0000    67105    4.82%
      9    11      500.0000   628      477.0000      500.0000    67542    4.82%
     10    12      500.0000   572      477.0000      500.0000    68565    4.82%
Elapsed time = 153.83 sec. (141926.15 ticks, tree = 0.25 MB, solutions = 4)
     12    14      500.0000   563      477.0000      500.0000    70855    4.82%
     13    15      500.0000   690      477.0000      500.0000    74066    4.82%
     15    17      500.0000   562      477.0000      500.0000    74817    4.82%
     17    19      500.0000   606      477.0000      500.0000    77036    4.82%
     20    22      500.0000   556      477.0000      500.0000    78395    4.82%
     22    24      500.0000   556      477.0000      500.0000    82092    4.82%
     24    26      500.0000   555      477.0000      500.0000    85181    4.82%
     26    28      500.0000   558      477.0000      500.0000    87650    4.82%
     28    30      500.0000   558      477.0000      500.0000    92148    4.82%
     30    32      500.0000   656      477.0000      500.0000    96703    4.82%
Elapsed time = 168.95 sec. (155401.30 ticks, tree = 0.98 MB, solutions = 4)
     32    34      500.0000   536      477.0000      500.0000    99919    4.82%
     34    36      500.0000   558      477.0000      500.0000   103137    4.82%
     36    38      500.0000   640      477.0000      500.0000   106700    4.82%
     38    40      500.0000   554      477.0000      500.0000   109885    4.82%
     40    42      500.0000   705      477.0000      500.0000   114723    4.82%
     42    44      500.0000   522      477.0000      500.0000   116415    4.82%
     44    46      500.0000   523      477.0000      500.0000   119153    4.82%
     46    48      500.0000   524      477.0000      500.0000   124752    4.82%
     48    50      500.0000   775      477.0000      500.0000   133453    4.82%
     50    52      500.0000   513      477.0000      500.0000   134682    4.82%
Elapsed time = 183.70 sec. (168329.47 ticks, tree = 1.79 MB, solutions = 4)
     52    54      500.0000   515      477.0000      500.0000   137899    4.82%
     54    56      500.0000   519      477.0000      500.0000   143804    4.82%
     56    58      500.0000   519      477.0000      500.0000   145451    4.82%
     59    61      500.0000   522      477.0000      500.0000   148934    4.82%
     61    63      500.0000   665      477.0000      500.0000   153229    4.82%
     63    65      500.0000   567      477.0000      500.0000   154512    4.82%
     65    67      500.0000   682      477.0000      500.0000   159144    4.82%
     67    69      500.0000   583      477.0000      500.0000   161503    4.82%
     69    71      500.0000   611      477.0000      500.0000   164383    4.82%
     70    72      500.0000   538      477.0000      500.0000   164421    4.82%
Elapsed time = 199.72 sec. (182450.98 ticks, tree = 2.56 MB, solutions = 4)
     72    74      500.0000   536      477.0000      500.0000   169002    4.82%
     74    76      500.0000   537      477.0000      500.0000   172858    4.82%
     76    78      500.0000   525      477.0000      500.0000   177282    4.82%
     78    80      500.0000   533      477.0000      500.0000   178699    4.82%
     80    82      500.0000   530      477.0000      500.0000   182512    4.82%
     83    85      500.0000   551      477.0000      500.0000   185407    4.82%
     85    87      500.0000   820      477.0000      500.0000   192658    4.82%
     87    89      500.0000   551      477.0000      500.0000   195057    4.82%
     90    92      500.0000   553      477.0000      500.0000   195502    4.82%
     92    94      500.0000   552      477.0000      500.0000   197120    4.82%
Elapsed time = 213.50 sec. (194729.50 ticks, tree = 3.41 MB, solutions = 4)
     93    95      500.0000   605      477.0000      500.0000   200793    4.82%
     95    97      500.0000   636      477.0000      500.0000   205381    4.82%
     97    99      500.0000   851      477.0000      500.0000   211618    4.82%
     99   101      500.0000   537      477.0000      500.0000   213292    4.82%
    100   102      500.0000   613      477.0000      500.0000   215879    4.82%
    102   104      500.0000   996      477.0000      500.0000   222364    4.82%
    104   106      500.0000   699      477.0000      500.0000   225630    4.82%
    106   108      500.0000   579      477.0000      500.0000   226956    4.82%
    108   110      500.0000   635      477.0000      500.0000   231377    4.82%
    110   112      500.0000   967      477.0000      500.0000   235243    4.82%
Elapsed time = 231.45 sec. (210311.19 ticks, tree = 4.01 MB, solutions = 4)
    112   114      500.0000   686      477.0000      500.0000   239375    4.82%
    114   116      500.0000   684      477.0000      500.0000   242956    4.82%
    116   118      500.0000   733      477.0000      500.0000   246809    4.82%
    118   120      500.0000   677      477.0000      500.0000   251771    4.82%
    120   122      500.0000   717      477.0000      500.0000   255170    4.82%
    123   125      500.0000   558      477.0000      500.0000   258454    4.82%
    125   127      500.0000   558      477.0000      500.0000   264961    4.82%
    127   129      500.0000   558      477.0000      500.0000   267438    4.82%
    129   131      500.0000   558      477.0000      500.0000   271910    4.82%
    131   133      500.0000   558      477.0000      500.0000   275489    4.82%
Elapsed time = 244.64 sec. (221609.58 ticks, tree = 4.86 MB, solutions = 4)
    133   135      500.0000   557      477.0000      500.0000   281330    4.82%
    135   137      500.0000   607      477.0000      500.0000   285531    4.82%
    137   139      500.0000   603      477.0000      500.0000   289524    4.82%
    139   141      500.0000   640      477.0000      500.0000   294861    4.82%
    141   143      500.0000   635      477.0000      500.0000   295906    4.82%
    143   145      500.0000   632      477.0000      500.0000   300443    4.82%
    145   147      500.0000   691      477.0000      500.0000   304218    4.82%
    147   149      500.0000   711      477.0000      500.0000   306436    4.82%
    149   151      500.0000   748      477.0000      500.0000   310905    4.82%
    151   153      500.0000   761      477.0000      500.0000   314637    4.82%
Elapsed time = 258.92 sec. (234085.75 ticks, tree = 5.61 MB, solutions = 4)
    154   156      500.0000   732      477.0000      500.0000   321233    4.82%
    156   158      500.0000   617      477.0000      500.0000   322016    4.82%
    158   160      500.0000   630      477.0000      500.0000   323317    4.82%
    160   162      500.0000   613      477.0000      500.0000   324362    4.82%
    162   164      500.0000   622      477.0000      500.0000   331205    4.82%
    164   166      500.0000   626      477.0000      500.0000   333096    4.82%
    166   168      500.0000   748      477.0000      500.0000   336914    4.82%
    168   170      500.0000   626      477.0000      500.0000   346110    4.82%
    170   172      500.0000   577      477.0000      500.0000   346787    4.82%
    171   173      500.0000   591      477.0000      500.0000   349037    4.82%
Elapsed time = 277.95 sec. (251317.01 ticks, tree = 6.39 MB, solutions = 4)
    173   175      500.0000   579      477.0000      500.0000   349531    4.82%
    175   177      500.0000   591      477.0000      500.0000   353158    4.82%
    177   179      500.0000   690      477.0000      500.0000   354250    4.82%
    179   181      500.0000   688      477.0000      500.0000   358579    4.82%
    181   183      500.0000   658      477.0000      500.0000   370110    4.82%
    183   185      500.0000   902      477.0000      500.0000   373075    4.82%
    185   187      500.0000  1058      477.0000      500.0000   384256    4.82%
    187   189      500.0000   776      477.0000      500.0000   389476    4.82%
    189   191      500.0000   633      477.0000      500.0000   393122    4.82%
    192   194      500.0000   645      477.0000      500.0000   404143    4.82%
Elapsed time = 311.92 sec. (281637.21 ticks, tree = 7.15 MB, solutions = 4)
    196   198      500.0000   626      477.0000      500.0000   412640    4.82%
    200   202      500.0000   593      477.0000      500.0000   423967    4.82%
    203   205      500.0000   588      477.0000      500.0000   429661    4.82%
    211   213      500.0000   497      477.0000      500.0000   436445    4.82%
    218   220      500.0000   490      477.0000      500.0000   445211    4.82%
    223   225      500.0000   613      477.0000      500.0000   461667    4.82%
    227   229      500.0000   870      477.0000      500.0000   474981    4.82%
    235   237      500.0000   846      477.0000      500.0000   485188    4.82%
    240   242      500.0000   855      477.0000      500.0000   493007    4.82%
    247   249      500.0000  1490      477.0000      500.0000   510165    4.82%
Elapsed time = 364.54 sec. (328161.55 ticks, tree = 9.32 MB, solutions = 4)
    254   256      500.0000   809      477.0000      500.0000   520922    4.82%
    261   263      500.0000   816      477.0000      500.0000   535751    4.82%
    268   270      500.0000   814      477.0000      500.0000   548787    4.82%
    274   276      500.0000   977      477.0000      500.0000   566135    4.82%
    280   282      500.0000  1238      477.0000      500.0000   581718    4.82%
    286   288      500.0000   797      477.0000      500.0000   595101    4.82%
    292   294      500.0000   792      477.0000      500.0000   609452    4.82%
    298   300      500.0000   800      477.0000      500.0000   624350    4.82%
    304   306      500.0000   795      477.0000      500.0000   639473    4.82%
    312   314      500.0000   821      477.0000      500.0000   653008    4.82%
Elapsed time = 435.17 sec. (388201.89 ticks, tree = 11.90 MB, solutions = 4)
    319   321      500.0000   791      477.0000      500.0000   665789    4.82%
    324   326      500.0000   805      477.0000      500.0000   687106    4.82%
    328   330      500.0000   783      477.0000      500.0000   702686    4.82%
    334   336      500.0000   931      477.0000      500.0000   720795    4.82%
    340   342      500.0000   769      477.0000      500.0000   741065    4.82%
    344   346      500.0000   775      477.0000      500.0000   748431    4.82%
    350   352      500.0000   710      477.0000      500.0000   759687    4.82%
    357   359      500.0000   639      477.0000      500.0000   768387    4.82%
    363   365      500.0000   598      477.0000      500.0000   782334    4.82%
    369   371      500.0000   893      477.0000      500.0000   799958    4.82%
Elapsed time = 491.89 sec. (437008.89 ticks, tree = 14.15 MB, solutions = 4)
    375   377      500.0000   771      477.0000      500.0000   820259    4.82%
    380   382      500.0000   609      477.0000      500.0000   832288    4.82%
    386   388      500.0000   905      477.0000      500.0000   854066    4.82%
    392   394      500.0000  1234      477.0000      500.0000   877227    4.82%
    399   401      500.0000   616      477.0000      500.0000   895490    4.82%
    406   408      500.0000   703      477.0000      500.0000   927686    4.82%
    412   414      500.0000   841      477.0000      500.0000   949848    4.82%
    420   422      500.0000   793      477.0000      500.0000   975576    4.82%
    427   429      500.0000   655      477.0000      500.0000   994603    4.82%
    434   436      500.0000   737      477.0000      500.0000  1015922    4.82%
Elapsed time = 548.27 sec. (483046.55 ticks, tree = 16.72 MB, solutions = 4)
    440   442      500.0000   867      477.0000      500.0000  1035956    4.82%
    443   445      500.0000   632      477.0000      500.0000  1049531    4.82%
    446   448      500.0000   619      477.0000      500.0000  1060766    4.82%
    451   453      500.0000   996      477.0000      500.0000  1081527    4.82%
    458   460      500.0000   990      477.0000      500.0000  1088627    4.82%
    467   469      500.0000   994      477.0000      500.0000  1097257    4.82%
    475   477      500.0000   964      477.0000      500.0000  1107666    4.82%
    482   484      500.0000   965      477.0000      500.0000  1118131    4.82%
    490   492      500.0000   944      477.0000      500.0000  1127312    4.82%
    497   499      500.0000   955      477.0000      500.0000  1141275    4.82%
Elapsed time = 596.91 sec. (525212.16 ticks, tree = 19.14 MB, solutions = 4)
Starting limited solution polishing.

Clique cuts applied:  49
Zero-half cuts applied:  19
Lift and project cuts applied:  1

Root node processing (before b&c):
  Real time             =  119.85 sec. (112239.66 ticks)
Sequential b&c:
  Real time             =  480.15 sec. (415633.23 ticks)
                          ------------
Total (root+branch&cut) =  600.00 sec. (527872.89 ticks)
Primal:	477
Dual:	500
Status:	Feasible
Time:	600.02
Sequence:
	11
	17
	6
	14
	16
	4
	7
	16
	15
	6
	10
	19
	18
	6
	13
	12
	6
	4
	16
	18
	11
	17
	1
	5
	13
	6
	12
	6
	13
	7
	12
	9
	1
	3
	13
	5
	12
	2
	11
	18
	10
	4
	14
	2
	15
	8
	2
	12
	7
	9
	14
	3
	13
	6
	12
	9
	0
	14
	19
	18
	2
	8
	15
	6
	10
	11
	5
	17
	11
	8
	2
	18
	19
	16
	5
	3
	13
	6
	12
	9
	1
	18
	11
	17
	8
	4
	5
	1
	13
	5
	3
	13
	1
	5
	9
	1
	12
	7
	9
	12
	1
	9
	3
	8
	11
	17
	5
	11
	14
	3
	9
	8
	3
	13
	6
	18
	10
	19
	5
	2
	12
	14
	2
	15
	1
	16
	15
	0
	10
	19
	18
	2
	12
	6
	9
	5
	3
	18
	6
	14
	10
	7
	15
	1
	10
	15
	7
	18
	19
	0
	16
	4
	12
	6
	9
	12
	1
	9
	3
	8
	13
	6
	0
	13
	12
	6
	9
	7
	12
	13
	0
	3
	13
	14
	3
	4
	16
	14
	15
	2
	1
	15
	10
	5
	19
	2
	8
	15
	2
	18
	19
	16
	5
	0
	10
	19
	18
	2
	19
	14
	5
	17
	11
	6
	10
	4
	8
	17
	4
	8
	2
	14
	15
	2
	5
	19
	10
	7
	15
	10
	1
	15
	2
	8
	11
	17
	5
	11
	17
	1
	18
	13
	3
	1
	9
	14
	0
	17
	11
	5
	2
	19
	8
	2
	15
	7
	10
	19
	5
	2
	11
	12
	6
	9
	14
	1
	9
	3
	14
	13
	0
	7
	13
	12
	5
	2
	19
	14
	0
	9
	14
	1
	9
	0
	12
	13
	6
	18
	19
	16
	5
	3
	13
	1
	18
	9
	3
	8
	11
	17
	5
	11
	12
	6
	4
	8
	12
	4
	18
	1
	12
	9
	6
	18
	19
	18
	1
	17
	11
	6
	18
	19
	14
	18
	0
	19
	14
	5
	17
	1
	4
	17
	0
	8
	10
	3
	0
	9
	14
	12
	4
	7
	8
	0
	13
	3
	14
	7
	10
	7
	19
	6
	8
	9
	3
	14
	6
	13
	18
	6
	10
	19
	18
	18
	19
	10
	7
	18
	16
	19
	18
	6
	13
	14
	3
	9
	7
	12
	13
	0
	3
	13
	8
	3
	9
	1
	12
	9
	6
	14
	2
	19
	18
	10
	15
	1
	2
	12
	4
	10
	18
	11
	17
	1
	4
	16
	5
	11
	17
	1
	18
	13
	0
	14
	4
	16
	18
	19
	2
	14
	15
	10
	7
	11
	17
	14
	0
	13
	6
	12
	9
	1
	5
	11
	17
	14
	4
	10
	0
	15
	10
	1
	15
	2
	5
	11
	17
	8
	4
	2
	8
	15
	10
	6
	11
	17
	18
	11
	17
	6
	14
	13
	3
	0
	13
	12
	6
	5
	19
	18
	10
	4
	0
	17
	11
	5
	17
	11
	8
	3
	9
	18
	1
	16
	4
	18
	16
